certificates/rado_a13_c149_N47.cnf
c Rad2 upper bound instance: x1 + 13*x2 - x3 = 149, interval [1,47]
p cnf 47 334
1 8 12 0
-1 -8 -12 0
1 13 21 0
-1 -13 -21 0
1 14 34 0
-1 -14 -34 0
1 15 47 0
-1 -15 -47 0
2 9 12 0
-2 -9 -12 0
2 13 22 0
-2 -13 -22 0
2 14 35 0
-2 -14 -35 0
3 10 12 0
-3 -10 -12 0
3 13 23 0
-3 -13 -23 0
3 14 36 0
-3 -14 -36 0
4 11 12 0
-4 -11 -12 0
4 13 24 0
-4 -13 -24 0
4 14 37 0
-4 -14 -37 0
5 12 0
-5 -12 0
5 13 25 0
-5 -13 -25 0
5 14 38 0
-5 -14 -38 0
6 12 13 0
-6 -12 -13 0
6 13 26 0
-6 -13 -26 0
6 14 39 0
-6 -14 -39 0
1 7 11 0
-1 -7 -11 0
7 12 14 0
-7 -12 -14 0
7 13 27 0
-7 -13 -27 0
7 14 40 0
-7 -14 -40 0
2 8 11 0
-2 -8 -11 0
8 12 15 0
-8 -12 -15 0
8 13 28 0
-8 -13 -28 0
8 14 41 0
-8 -14 -41 0
3 9 11 0
-3 -9 -11 0
9 12 16 0
-9 -12 -16 0
9 13 29 0
-9 -13 -29 0
9 14 42 0
-9 -14 -42 0
4 10 11 0
-4 -10 -11 0
10 12 17 0
-10 -12 -17 0
10 13 30 0
-10 -13 -30 0
10 14 43 0
-10 -14 -43 0
5 11 0
-5 -11 0
11 12 18 0
-11 -12 -18 0
11 13 31 0
-11 -13 -31 0
11 14 44 0
-11 -14 -44 0
6 11 12 0
-6 -11 -12 0
12 19 0
-12 -19 0
12 13 32 0
-12 -13 -32 0
12 14 45 0
-12 -14 -45 0
7 11 13 0
-7 -11 -13 0
12 13 20 0
-12 -13 -20 0
13 33 0
-13 -33 0
13 14 46 0
-13 -14 -46 0
8 11 14 0
-8 -11 -14 0
12 14 21 0
-12 -14 -21 0
13 14 34 0
-13 -14 -34 0
14 47 0
-14 -47 0
9 11 15 0
-9 -11 -15 0
12 15 22 0
-12 -15 -22 0
13 15 35 0
-13 -15 -35 0
10 11 16 0
-10 -11 -16 0
12 16 23 0
-12 -16 -23 0
13 16 36 0
-13 -16 -36 0
11 17 0
-11 -17 0
12 17 24 0
-12 -17 -24 0
13 17 37 0
-13 -17 -37 0
12 18 25 0
-12 -18 -25 0
13 18 38 0
-13 -18 -38 0
11 13 19 0
-11 -13 -19 0
12 19 26 0
-12 -19 -26 0
13 19 39 0
-13 -19 -39 0
1 10 20 0
-1 -10 -20 0
11 14 20 0
-11 -14 -20 0
12 20 27 0
-12 -20 -27 0
13 20 40 0
-13 -20 -40 0
2 10 21 0
-2 -10 -21 0
11 15 21 0
-11 -15 -21 0
12 21 28 0
-12 -21 -28 0
13 21 41 0
-13 -21 -41 0
3 10 22 0
-3 -10 -22 0
11 16 22 0
-11 -16 -22 0
12 22 29 0
-12 -22 -29 0
13 22 42 0
-13 -22 -42 0
4 10 23 0
-4 -10 -23 0
11 17 23 0
-11 -17 -23 0
12 23 30 0
-12 -23 -30 0
13 23 43 0
-13 -23 -43 0
5 10 24 0
-5 -10 -24 0
11 18 24 0
-11 -18 -24 0
12 24 31 0
-12 -24 -31 0
13 24 44 0
-13 -24 -44 0
6 10 25 0
-6 -10 -25 0
11 19 25 0
-11 -19 -25 0
12 25 32 0
-12 -25 -32 0
13 25 45 0
-13 -25 -45 0
7 10 26 0
-7 -10 -26 0
11 20 26 0
-11 -20 -26 0
12 26 33 0
-12 -26 -33 0
13 26 46 0
-13 -26 -46 0
8 10 27 0
-8 -10 -27 0
11 21 27 0
-11 -21 -27 0
12 27 34 0
-12 -27 -34 0
13 27 47 0
-13 -27 -47 0
9 10 28 0
-9 -10 -28 0
11 22 28 0
-11 -22 -28 0
12 28 35 0
-12 -28 -35 0
10 29 0
-10 -29 0
11 23 29 0
-11 -23 -29 0
12 29 36 0
-12 -29 -36 0
10 11 30 0
-10 -11 -30 0
11 24 30 0
-11 -24 -30 0
12 30 37 0
-12 -30 -37 0
10 12 31 0
-10 -12 -31 0
11 25 31 0
-11 -25 -31 0
12 31 38 0
-12 -31 -38 0
10 13 32 0
-10 -13 -32 0
11 26 32 0
-11 -26 -32 0
12 32 39 0
-12 -32 -39 0
1 9 33 0
-1 -9 -33 0
10 14 33 0
-10 -14 -33 0
11 27 33 0
-11 -27 -33 0
12 33 40 0
-12 -33 -40 0
2 9 34 0
-2 -9 -34 0
10 15 34 0
-10 -15 -34 0
11 28 34 0
-11 -28 -34 0
12 34 41 0
-12 -34 -41 0
3 9 35 0
-3 -9 -35 0
10 16 35 0
-10 -16 -35 0
11 29 35 0
-11 -29 -35 0
12 35 42 0
-12 -35 -42 0
4 9 36 0
-4 -9 -36 0
10 17 36 0
-10 -17 -36 0
11 30 36 0
-11 -30 -36 0
12 36 43 0
-12 -36 -43 0
5 9 37 0
-5 -9 -37 0
10 18 37 0
-10 -18 -37 0
11 31 37 0
-11 -31 -37 0
12 37 44 0
-12 -37 -44 0
6 9 38 0
-6 -9 -38 0
10 19 38 0
-10 -19 -38 0
11 32 38 0
-11 -32 -38 0
12 38 45 0
-12 -38 -45 0
7 9 39 0
-7 -9 -39 0
10 20 39 0
-10 -20 -39 0
11 33 39 0
-11 -33 -39 0
12 39 46 0
-12 -39 -46 0
8 9 40 0
-8 -9 -40 0
10 21 40 0
-10 -21 -40 0
11 34 40 0
-11 -34 -40 0
12 40 47 0
-12 -40 -47 0
9 41 0
-9 -41 0
10 22 41 0
-10 -22 -41 0
11 35 41 0
-11 -35 -41 0
9 10 42 0
-9 -10 -42 0
10 23 42 0
-10 -23 -42 0
11 36 42 0
-11 -36 -42 0
9 11 43 0
-9 -11 -43 0
10 24 43 0
-10 -24 -43 0
11 37 43 0
-11 -37 -43 0
9 12 44 0
-9 -12 -44 0
10 25 44 0
-10 -25 -44 0
11 38 44 0
-11 -38 -44 0
9 13 45 0
-9 -13 -45 0
10 26 45 0
-10 -26 -45 0
11 39 45 0
-11 -39 -45 0
1 8 46 0
-1 -8 -46 0
9 14 46 0
-9 -14 -46 0
10 27 46 0
-10 -27 -46 0
11 40 46 0
-11 -40 -46 0
2 8 47 0
-2 -8 -47 0
9 15 47 0
-9 -15 -47 0
10 28 47 0
-10 -28 -47 0
11 41 47 0
-11 -41 -47 0
