certificates/rado_a13_c149_N47.drat
-41 -47 0
11 12 -47 0
12 -47 0
d 11 12 -47 0
-47 0
14 0
-12 0
5 0
19 0
40 0
-11 0
-38 0
-7 0
17 0
41 0
4 0
18 0
6 0
45 0
44 0
31 0
32 0
1 0
13 0
-9 0
-8 0
-37 0
-39 0
-34 0
-21 0
-24 0
-25 0
-26 0
-33 0
-46 0
-20 0
-10 0
15 0
43 0
0
